
******************************************************************************
This program contains Ipopt, a library for large-scale nonlinear optimization.
 Ipopt is released as open source code under the Eclipse Public License (EPL).
         For more information visit http://projects.coin-or.org/Ipopt
******************************************************************************

This is Ipopt version 3.12.6, running with linear solver ma57.

Number of nonzeros in equality constraint Jacobian...:    25000
Number of nonzeros in inequality constraint Jacobian.:        0
Number of nonzeros in Lagrangian Hessian.............:    45006

Total number of variables............................:    10003
                     variables with only lower bounds:        0
                variables with lower and upper bounds:        0
                     variables with only upper bounds:        0
Total number of equality constraints.................:     5000
Total number of inequality constraints...............:        0
        inequality constraints with only lower bounds:        0
   inequality constraints with lower and upper bounds:        0
        inequality constraints with only upper bounds:        0

iter    objective    inf_pr   inf_du lg(mu)  ||d||  lg(rg) alpha_du alpha_pr  ls
   0  0.0000000e+00 7.15e+02 0.00e+00  -1.0 0.00e+00    -  0.00e+00 0.00e+00   0
   1  1.4951108e+02 3.23e+02 4.24e+02  -1.0 1.10e+00    -  1.00e+00 5.00e-01h  2
   2  1.3614188e+03 7.88e+01 1.54e+03  -1.0 6.66e-01    -  1.00e+00 1.00e+00h  1
   3  1.4891570e+03 9.00e+00 2.71e+02  -1.0 2.43e-01    -  1.00e+00 1.00e+00h  1
   4  1.5136755e+03 1.96e-01 1.06e+01  -1.0 6.75e-02    -  1.00e+00 1.00e+00h  1
   5  1.5138024e+03 1.60e-04 2.06e-03  -1.0 2.83e-03    -  1.00e+00 1.00e+00h  1
   6  1.5138023e+03 9.18e-11 2.52e-09  -3.8 1.33e-06    -  1.00e+00 1.00e+00h  1

Number of Iterations....: 6

                                   (scaled)                 (unscaled)
Objective...............:   1.5138023236508104e+03    1.5138023236508104e+03
Dual infeasibility......:   2.5247732793332034e-09    2.5247732793332034e-09
Constraint violation....:   9.1773699750774540e-11    9.1773699750774540e-11
Complementarity.........:   0.0000000000000000e+00    0.0000000000000000e+00
Overall NLP error.......:   2.5247732793332034e-09    2.5247732793332034e-09


Number of objective function evaluations             = 9
Number of objective gradient evaluations             = 7
Number of equality constraint evaluations            = 9
Number of inequality constraint evaluations          = 0
Number of equality constraint Jacobian evaluations   = 7
Number of inequality constraint Jacobian evaluations = 0
Number of Lagrangian Hessian evaluations             = 6
Total CPU secs in IPOPT (w/o function evaluations)   =      0.063
Total CPU secs in NLP function evaluations           =      0.077

EXIT: Optimal Solution Found.

************************ CUTEst statistics ************************


 Package used            :  IPOPT
 Problem                 :  ORTHRGDM  
 # variables             =           10003
 # constraints           =            5000
 # objective functions   =        0.1700000E+02
 # objective gradients   =        0.8000000E+01
 # objective Hessians    =        0.7000000E+01
 # Hessian-vector prdct  =        0.0000000E+00
 # constraints functions =        0.1800000E+02
 # constraints gradients =        0.9000000E+01
 # constraints Hessians  =        0.7000000E+01
 Exit code               =               0
 Final f                 =   0.1513802E+04
 Set up time             =            0.78 seconds
 Solve time              =            0.34 seconds


******************************************************************

System Time =       0.1000000015 s.
